150 570587723
92 26 17 128 21 124 90 61 137 46 52 18 82 116 34 86 103 77 53 132 71 125 43 68 101 115 113 5 48 54 70 66 89 122 56 118 81 149 30 9 133 91 138 100 98 69 40 110 3 78 6 120 73 143 10 62 148 147 117 24 59 41 57 2 28 37 4 7 19 36 27 87 74 131 79 64 119 105 31 135 96 65 38 20 51 127 44 107 95 75 111 145 22 93 13 55 76 130 150 29 106 108 15 47 102 58 97 123 33 60 49 42 126 16 67 140 12 39 25 136 85 146 8 121 112 1 144 141 129 35 50 23 45 142 72 80 63 14 99 109 134 104 83 88 11 94 139 32 114 84 
